c leafs=70, vars=17, seed=1, tickle=None
p cnf 887 2401                                                                
e 18 19 20 21 22 23 24 25 26 27 28 29 30 31 32 33 34 35 36 37 38 39 40 41 42 43 44 45 46 47 48 49 50 51 52 53 54 55 56 57 58 59 60 61 62 63 64 65 66 67 68 69 70 71 72 73 74 75 76 77 78 79 80 81 82 83 84 85 86 87  0
a 1 2 3 4 5 6 7 8 9 10 11 12 13 14 15 16 17  0
e 88 89 90 91 92 93 94 95 96 97 98 99 100 101 102 103 104 105 106 107 108 109 110 111 112 113 114 115 116 117 118 119 120 121 122 123 124 125 126 127 128 129 130 131 132 133 134 135 136 137 138 139 140 141 142 143 144 145 146 147 148 149 150 151 152 153 154 155 156 157 158 159 160 161 162 163 164 165 166 167 168 169 170 171 172 173 174 175 176 177 178 179 180 181 182 183 184 185 186 187 188 189 190 191 192 193 194 195 196 197 198 199 200 201 202 203 204 205 206 207 208 209 210 211 212 213 214 215 216 217 218 219 220 221 222 223 224 225 226 227 228 229 230 231 232 233 234 235 236 237 238 239 240 241 242 243 244 245 246 247 248 249 250 251 252 253 254 255 256 257 258 259 260 261 262 263 264 265 266 267 268 269 270 271 272 273 274 275 276 277 278 279 280 281 282 283 284 285 286 287 288 289 290 291 292 293 294 295 296 297 298 299 300 301 302 303 304 305 306 307 308 309 310 311 312 313 314 315 316 317 318 319 320 321 322 323 324 325 326 327 328 329 330 331 332 333 334 335 336 337 338 339 340 341 342 343 344 345 346 347 348 349 350 351 352 353 354 355 356 357 358 359 360 361 362 363 364 365 366 367 368 369 370 371 372 373 374 375 376 377 378 379 380 381 382 383 384 385 386 387 388 389 390 391 392 393 394 395 396 397 398 399 400 401 402 403 404 405 406 407 408 409 410 411 412 413 414 415 416 417 418 419 420 421 422 423 424 425 426 427 428 429 430 431 432 433 434 435 436 437 438 439 440 441 442 443 444 445 446 447 448 449 450 451 452 453 454 455 456 457 458 459 460 461 462 463 464 465 466 467 468 469 470 471 472 473 474 475 476 477 478 479 480 481 482 483 484 485 486 487 488 489 490 491 492 493 494 495 496 497 498 499 500 501 502 503 504 505 506 507 508 509 510 511 512 513 514 515 516 517 518 519 520 521 522 523 524 525 526 527 528 529 530 531 532 533 534 535 536 537 538 539 540 541 542 543 544 545 546 547 548 549 550 551 552 553 554 555 556 557 558 559 560 561 562 563 564 565 566 567 568 569 570 571 572 573 574 575 576 577 578 579 580 581 582 583 584 585 586 587 588 589 590 591 592 593 594 595 596 597 598 599 600 601 602 603 604 605 606 607 608 609 610 611 612 613 614 615 616 617 618 619 620 621 622 623 624 625 626 627 628 629 630 631 632 633 634 635 636 637 638 639 640 641 642 643 644 645 646 647 648 649 650 651 652 653 654 655 656 657 658 659 660 661 662 663 664 665 666 667 668 669 670 671 672 673 674 675 676 677 678 679 680 681 682 683 684 685 686 687 688 689 690 691 692 693 694 695 696 697 698 699 700 701 702 703 704 705 706 707 708 709 710 711 712 713 714 715 716 717 718 719 720 721 722 723 724 725 726 727 728 729 730 731 732 733 734 735 736 737 738 739 740 741 742 743 744 745 746 747 748 749 750 751 752 753 754 755 756 757 758 759 760 761 762 763 764 765 766 767 768 769 770 771 772 773 774 775 776 777 778 779 780 781 782 783 784 785 786 787 788 789 790 791 792 793 794 795 796 797 798 799 800 801 802 803 804 805 806 807 808 809 810 811 812 813 814 815 816 817 818 819 820 821 822 823 824 825 826 827 828 829 830 831 832 833 834 835 836 837 838 839 840 841 842 843 844 845 846 847 848 849 850 851 852 853 854 855 856 857 858 859 860 861 862 863 864 865 866 867 868 869 870 871 872 873 874 875 876 877 878 879 880 881 882 883 884 885 886 887  0
887  0
-88 -8 1  0
88 8  0
88 -1  0
-89 -1 8  0
89 1  0
89 -8  0
-90 -13 -8  0
90 13  0
90 8  0
-91 -12 1  0
91 12  0
91 -1  0
-92 1 14  0
92 -1  0
92 -14  0
-93 -14 -1  0
93 14  0
93 1  0
-94 -7 -4  0
94 7  0
94 4  0
-95 4 7  0
95 -4  0
95 -7  0
-96 -5 14  0
96 5  0
96 -14  0
-97 -14 5  0
97 14  0
97 -5  0
-98 -14 -5  0
98 14  0
98 5  0
-99 5 14  0
99 -5  0
99 -14  0
-100 2 8  0
100 -2  0
100 -8  0
-101 1 8  0
101 -1  0
101 -8  0
-102 -8 -1  0
102 8  0
102 1  0
-103 -6 3  0
103 6  0
103 -3  0
-104 -3 6  0
104 3  0
104 -6  0
105 11 -1  0
-105 -11  0
-105 1  0
106 1 -11  0
-106 -1  0
-106 11  0
107 7 -2  0
-107 -7  0
-107 2  0
108 -1 -6  0
-108 1  0
-108 6  0
109 6 1  0
-109 -6  0
-109 -1  0
110 17 -7  0
-110 -17  0
-110 7  0
111 7 -17  0
-111 -7  0
-111 17  0
112 6 -1  0
-112 -6  0
-112 1  0
113 1 -6  0
-113 -1  0
-113 6  0
-114 3 6  0
114 -3  0
114 -6  0
-115 -6 -3  0
115 6  0
115 3  0
-116 -9 -8  0
116 9  0
116 8  0
-117 2 9  0
117 -2  0
117 -9  0
-118 -9 -2  0
118 9  0
118 2  0
119 -2 -16  0
-119 2  0
-119 16  0
-120 -5 7  0
120 5  0
120 -7  0
-121 -7 5  0
121 7  0
121 -5  0
-122 -11 -9  0
122 11  0
122 9  0
-123 9 11  0
123 -9  0
123 -11  0
-124 -12 4  0
124 12  0
124 -4  0
-125 -4 12  0
125 4  0
125 -12  0
-126 -12 -4  0
126 12  0
126 4  0
-127 4 12  0
127 -4  0
127 -12  0
128 15 -10  0
-128 -15  0
-128 10  0
129 10 -15  0
-129 -10  0
-129 15  0
130 -3 -17  0
-130 3  0
-130 17  0
131 17 3  0
-131 -17  0
-131 -3  0
-132 10 15  0
132 -10  0
132 -15  0
-133 -15 -10  0
133 15  0
133 10  0
134 1 -44  0
-134 -1  0
-134 44  0
135 44 -5  0
-135 -44  0
-135 5  0
136 12 -45  0
-136 -12  0
-136 45  0
137 45 -8  0
-137 -45  0
-137 8  0
138 -5 -46  0
-138 5  0
-138 46  0
139 46 6  0
-139 -46  0
-139 -6  0
140 47 14  0
-140 -47  0
-140 -14  0
141 -3 -47  0
-141 3  0
-141 47  0
142 52 -6  0
-142 -52  0
-142 6  0
143 14 -52  0
-143 -14  0
-143 52  0
144 16 -51  0
-144 -16  0
-144 51  0
145 51 -15  0
-145 -51  0
-145 15  0
-146 -50 -1  0
146 50  0
146 1  0
-147 -9 50  0
147 9  0
147 -50  0
-148 -49 -8  0
148 49  0
148 8  0
-149 -14 49  0
149 14  0
149 -49  0
-150 -48 5  0
150 48  0
150 -5  0
-151 -2 48  0
151 2  0
151 -48  0
152 37 -7  0
-152 -37  0
-152 7  0
153 -17 -37  0
-153 17  0
-153 37  0
154 2 -38  0
-154 -2  0
-154 38  0
155 38 3  0
-155 -38  0
-155 -3  0
156 15 -39  0
-156 -15  0
-156 39  0
157 39 10  0
-157 -39  0
-157 -10  0
158 -8 -36  0
-158 8  0
-158 36  0
159 36 -1  0
-159 -36  0
-159 1  0
160 35 -16  0
-160 -35  0
-160 16  0
161 6 -35  0
-161 -6  0
-161 35  0
162 42 -17  0
-162 -42  0
-162 17  0
163 1 -42  0
-163 -1  0
-163 42  0
164 10 -43  0
-164 -10  0
-164 43  0
165 43 11  0
-165 -43  0
-165 -11  0
166 40 4  0
-166 -40  0
-166 -4  0
167 -6 -40  0
-167 6  0
-167 40  0
168 -5 -41  0
-168 5  0
-168 41  0
169 41 -14  0
-169 -41  0
-169 14  0
170 22 16  0
-170 -22  0
-170 -16  0
171 -5 -22  0
-171 5  0
-171 22  0
172 23 9  0
-172 -23  0
-172 -9  0
173 -14 -23  0
-173 14  0
-173 23  0
174 25 13  0
-174 -25  0
-174 -13  0
175 -4 -25  0
-175 4  0
-175 25  0
176 -7 -24  0
-176 7  0
-176 24  0
177 24 15  0
-177 -24  0
-177 -15  0
-178 -21 15  0
178 21  0
178 -15  0
-179 11 21  0
179 -11  0
179 -21  0
-180 2 20  0
180 -2  0
180 -20  0
-181 -20 9  0
181 20  0
181 -9  0
182 7 -19  0
-182 -7  0
-182 19  0
183 19 1  0
-183 -19  0
-183 -1  0
184 18 13  0
-184 -18  0
-184 -13  0
185 15 -18  0
-185 -15  0
-185 18  0
186 12 -32  0
-186 -12  0
-186 32  0
187 32 -10  0
-187 -32  0
-187 10  0
188 -4 -34  0
-188 4  0
-188 34  0
189 34 -16  0
-189 -34  0
-189 16  0
190 -2 -33  0
-190 2  0
-190 33  0
191 33 -9  0
-191 -33  0
-191 9  0
192 31 6  0
-192 -31  0
-192 -6  0
193 5 -31  0
-193 -5  0
-193 31  0
194 30 11  0
-194 -30  0
-194 -11  0
195 -7 -30  0
-195 7  0
-195 30  0
-196 -3 28  0
196 3  0
196 -28  0
-197 -28 -17  0
197 28  0
197 17  0
-198 7 29  0
198 -7  0
198 -29  0
-199 -29 -12  0
199 29  0
199 12  0
200 26 -5  0
-200 -26  0
-200 5  0
201 11 -26  0
-201 -11  0
-201 26  0
202 27 1  0
-202 -27  0
-202 -1  0
203 14 -27  0
-203 -14  0
-203 27  0
-204 -5 81  0
204 5  0
204 -81  0
-205 -81 1  0
205 81  0
205 -1  0
-206 6 80  0
206 -6  0
206 -80  0
-207 -80 -12  0
207 80  0
207 12  0
-208 14 79  0
208 -14  0
208 -79  0
-209 -79 11  0
209 79  0
209 -11  0
-210 -82 -16  0
210 82  0
210 16  0
-211 3 82  0
211 -3  0
211 -82  0
-212 -83 4  0
212 83  0
212 -4  0
-213 -2 83  0
213 2  0
213 -83  0
-214 -84 5  0
214 84  0
214 -5  0
-215 -4 84  0
215 4  0
215 -84  0
-216 7 85  0
216 -7  0
216 -85  0
-217 -85 10  0
217 85  0
217 -10  0
-218 15 86  0
218 -15  0
218 -86  0
-219 -86 17  0
219 86  0
219 -17  0
-220 -87 9  0
220 87  0
220 -9  0
-221 -16 87  0
221 16  0
221 -87  0
222 2 -74  0
-222 -2  0
-222 74  0
223 74 16  0
-223 -74  0
-223 -16  0
224 -4 -75  0
-224 4  0
-224 75  0
225 75 6  0
-225 -75  0
-225 -6  0
226 -3 -76  0
-226 3  0
-226 76  0
227 76 8  0
-227 -76  0
-227 -8  0
228 13 -77  0
-228 -13  0
-228 77  0
229 77 14  0
-229 -77  0
-229 -14  0
230 -16 -78  0
-230 16  0
-230 78  0
231 78 -1  0
-231 -78  0
-231 1  0
232 70 8  0
-232 -70  0
-232 -8  0
233 -14 -70  0
-233 14  0
-233 70  0
234 -5 -71  0
-234 5  0
-234 71  0
235 71 -6  0
-235 -71  0
-235 6  0
236 72 4  0
-236 -72  0
-236 -4  0
237 -3 -72  0
-237 3  0
-237 72  0
238 73 11  0
-238 -73  0
-238 -11  0
239 13 -73  0
-239 -13  0
-239 73  0
240 4 -53  0
-240 -4  0
-240 53  0
241 53 -16  0
-241 -53  0
-241 16  0
242 54 -5  0
-242 -54  0
-242 5  0
243 -12 -54  0
-243 12  0
-243 54  0
-244 -56 -6  0
244 56  0
244 6  0
-245 15 56  0
245 -15  0
245 -56  0
-246 -55 8  0
246 55  0
246 -8  0
-247 -14 55  0
247 14  0
247 -55  0
248 -16 -60  0
-248 16  0
-248 60  0
249 60 9  0
-249 -60  0
-249 -9  0
250 59 14  0
-250 -59  0
-250 -14  0
251 11 -59  0
-251 -11  0
-251 59  0
252 -5 -61  0
-252 5  0
-252 61  0
253 61 -3  0
-253 -61  0
-253 3  0
-254 3 58  0
254 -3  0
254 -58  0
-255 -58 -4  0
255 58  0
255 4  0
-256 -57 7  0
256 57  0
256 -7  0
-257 12 57  0
257 -12  0
257 -57  0
258 13 -68  0
-258 -13  0
-258 68  0
259 68 15  0
-259 -68  0
-259 -15  0
260 69 -9  0
-260 -69  0
-260 9  0
261 10 -69  0
-261 -10  0
-261 69  0
262 66 5  0
-262 -66  0
-262 -5  0
263 17 -66  0
-263 -17  0
-263 66  0
264 4 -67  0
-264 -4  0
-264 67  0
265 67 14  0
-265 -67  0
-265 -14  0
-266 6 63  0
266 -6  0
266 -63  0
-267 -63 -1  0
267 63  0
267 1  0
-268 13 62  0
268 -13  0
268 -62  0
-269 -62 -8  0
269 62  0
269 8  0
-270 -64 6  0
270 64  0
270 -6  0
-271 -17 64  0
271 17  0
271 -64  0
-272 -65 9  0
272 65  0
272 -9  0
-273 -3 65  0
273 3  0
273 -65  0
274 -88 -89  0
-274 88  0
-274 89  0
275 -92 -93  0
-275 92  0
-275 93  0
276 -94 -95  0
-276 94  0
-276 95  0
277 -96 -97  0
-277 96  0
-277 97  0
278 -98 -99  0
-278 98  0
-278 99  0
279 -101 -102  0
-279 101  0
-279 102  0
280 -103 -104  0
-280 103  0
-280 104  0
-281 105 106  0
281 -105  0
281 -106  0
282 10 -107  0
-282 -10  0
-282 107  0
283 -10 107  0
-283 10  0
-283 -107  0
-284 108 109  0
284 -108  0
284 -109  0
-285 110 111  0
285 -110  0
285 -111  0
286 10 107  0
-286 -10  0
-286 -107  0
287 -10 -107  0
-287 10  0
-287 107  0
-288 112 113  0
288 -112  0
288 -113  0
289 -114 -115  0
-289 114  0
-289 115  0
290 -117 -118  0
-290 117  0
-290 118  0
291 -120 -121  0
-291 120  0
-291 121  0
292 -122 -123  0
-292 122  0
-292 123  0
293 -124 -125  0
-293 124  0
-293 125  0
294 5 -123  0
-294 -5  0
-294 123  0
295 -5 123  0
-295 5  0
-295 -123  0
296 -126 -127  0
-296 126  0
-296 127  0
-297 128 129  0
297 -128  0
297 -129  0
-298 130 131  0
298 -130  0
298 -131  0
299 -132 -133  0
-299 132  0
-299 133  0
-300 134 135  0
300 -134  0
300 -135  0
-301 136 137  0
301 -136  0
301 -137  0
-302 138 139  0
302 -138  0
302 -139  0
-303 140 141  0
303 -140  0
303 -141  0
-304 142 143  0
304 -142  0
304 -143  0
-305 144 145  0
305 -144  0
305 -145  0
306 -146 -147  0
-306 146  0
-306 147  0
307 -148 -149  0
-307 148  0
-307 149  0
308 -150 -151  0
-308 150  0
-308 151  0
-309 152 153  0
309 -152  0
309 -153  0
-310 154 155  0
310 -154  0
310 -155  0
-311 156 157  0
311 -156  0
311 -157  0
-312 158 159  0
312 -158  0
312 -159  0
-313 160 161  0
313 -160  0
313 -161  0
-314 162 163  0
314 -162  0
314 -163  0
-315 164 165  0
315 -164  0
315 -165  0
-316 166 167  0
316 -166  0
316 -167  0
-317 168 169  0
317 -168  0
317 -169  0
-318 170 171  0
318 -170  0
318 -171  0
-319 172 173  0
319 -172  0
319 -173  0
-320 174 175  0
320 -174  0
320 -175  0
-321 176 177  0
321 -176  0
321 -177  0
322 -178 -179  0
-322 178  0
-322 179  0
323 -180 -181  0
-323 180  0
-323 181  0
-324 182 183  0
324 -182  0
324 -183  0
-325 184 185  0
325 -184  0
325 -185  0
-326 186 187  0
326 -186  0
326 -187  0
-327 188 189  0
327 -188  0
327 -189  0
-328 190 191  0
328 -190  0
328 -191  0
-329 192 193  0
329 -192  0
329 -193  0
-330 194 195  0
330 -194  0
330 -195  0
331 -196 -197  0
-331 196  0
-331 197  0
332 -198 -199  0
-332 198  0
-332 199  0
-333 200 201  0
333 -200  0
333 -201  0
-334 202 203  0
334 -202  0
334 -203  0
335 -204 -205  0
-335 204  0
-335 205  0
336 -206 -207  0
-336 206  0
-336 207  0
337 -208 -209  0
-337 208  0
-337 209  0
338 -210 -211  0
-338 210  0
-338 211  0
339 -212 -213  0
-339 212  0
-339 213  0
340 -214 -215  0
-340 214  0
-340 215  0
341 -216 -217  0
-341 216  0
-341 217  0
342 -218 -219  0
-342 218  0
-342 219  0
343 -220 -221  0
-343 220  0
-343 221  0
-344 222 223  0
344 -222  0
344 -223  0
-345 224 225  0
345 -224  0
345 -225  0
-346 226 227  0
346 -226  0
346 -227  0
-347 228 229  0
347 -228  0
347 -229  0
-348 230 231  0
348 -230  0
348 -231  0
-349 232 233  0
349 -232  0
349 -233  0
-350 234 235  0
350 -234  0
350 -235  0
-351 236 237  0
351 -236  0
351 -237  0
-352 238 239  0
352 -238  0
352 -239  0
-353 240 241  0
353 -240  0
353 -241  0
-354 242 243  0
354 -242  0
354 -243  0
355 -244 -245  0
-355 244  0
-355 245  0
356 -246 -247  0
-356 246  0
-356 247  0
-357 248 249  0
357 -248  0
357 -249  0
-358 250 251  0
358 -250  0
358 -251  0
-359 252 253  0
359 -252  0
359 -253  0
360 -254 -255  0
-360 254  0
-360 255  0
361 -256 -257  0
-361 256  0
-361 257  0
-362 258 259  0
362 -258  0
362 -259  0
-363 260 261  0
363 -260  0
363 -261  0
-364 262 263  0
364 -262  0
364 -263  0
-365 264 265  0
365 -264  0
365 -265  0
366 -266 -267  0
-366 266  0
-366 267  0
367 -268 -269  0
-367 268  0
-367 269  0
368 -270 -271  0
-368 270  0
-368 271  0
369 -272 -273  0
-369 272  0
-369 273  0
-370 13 274  0
370 -13  0
370 -274  0
-371 12 275  0
371 -12  0
371 -275  0
-372 -16 276  0
372 16  0
372 -276  0
-373 16 276  0
373 -16  0
373 -276  0
374 6 -279  0
-374 -6  0
-374 279  0
375 -6 -279  0
-375 6  0
-375 279  0
-376 274 280  0
376 -274  0
376 -280  0
-377 14 281  0
377 -14  0
377 -281  0
-378 -14 281  0
378 14  0
378 -281  0
-379 282 283  0
379 -282  0
379 -283  0
-380 286 287  0
380 -286  0
380 -287  0
-381 8 290  0
381 -8  0
381 -290  0
382 12 -291  0
-382 -12  0
-382 291  0
383 -12 -291  0
-383 12  0
-383 291  0
-384 -1 292  0
384 1  0
384 -292  0
-385 1 292  0
385 -1  0
385 -292  0
-386 294 295  0
386 -294  0
386 -295  0
-387 -1 298  0
387 1  0
387 -298  0
-388 1 298  0
388 -1  0
388 -298  0
-389 300 301  0
389 -300  0
389 -301  0
-390 -300 -301  0
390 300  0
390 301  0
-391 302 303  0
391 -302  0
391 -303  0
-392 -303 -302  0
392 303  0
392 302  0
-393 304 305  0
393 -304  0
393 -305  0
-394 -305 -304  0
394 305  0
394 304  0
395 -307 -308  0
-395 307  0
-395 308  0
-396 309 310  0
396 -309  0
396 -310  0
397 -312 -313  0
-397 312  0
-397 313  0
398 313 312  0
-398 -313  0
-398 -312  0
399 -314 -315  0
-399 314  0
-399 315  0
400 314 315  0
-400 -314  0
-400 -315  0
401 -316 -317  0
-401 316  0
-401 317  0
402 316 317  0
-402 -316  0
-402 -317  0
403 -318 -319  0
-403 318  0
-403 319  0
404 318 319  0
-404 -318  0
-404 -319  0
405 -320 -321  0
-405 320  0
-405 321  0
406 321 320  0
-406 -321  0
-406 -320  0
407 -322 -323  0
-407 322  0
-407 323  0
408 323 322  0
-408 -323  0
-408 -322  0
409 -324 -325  0
-409 324  0
-409 325  0
410 324 325  0
-410 -324  0
-410 -325  0
411 -327 -328  0
-411 327  0
-411 328  0
-412 329 330  0
412 -329  0
412 -330  0
-413 -330 -329  0
413 330  0
413 329  0
-414 331 332  0
414 -331  0
414 -332  0
-415 -331 -332  0
415 331  0
415 332  0
-416 333 334  0
416 -333  0
416 -334  0
-417 -334 -333  0
417 334  0
417 333  0
418 -336 -337  0
-418 336  0
-418 337  0
-419 338 339  0
419 -338  0
419 -339  0
-420 -339 -338  0
420 339  0
420 338  0
-421 340 341  0
421 -340  0
421 -341  0
-422 -341 -340  0
422 341  0
422 340  0
-423 342 343  0
423 -342  0
423 -343  0
-424 -343 -342  0
424 343  0
424 342  0
-425 344 345  0
425 -344  0
425 -345  0
-426 -344 -345  0
426 344  0
426 345  0
427 -347 -348  0
-427 347  0
-427 348  0
-428 349 350  0
428 -349  0
428 -350  0
-429 -349 -350  0
429 349  0
429 350  0
-430 351 352  0
430 -351  0
430 -352  0
-431 -352 -351  0
431 352  0
431 351  0
432 -353 -354  0
-432 353  0
-432 354  0
433 353 354  0
-433 -353  0
-433 -354  0
434 -355 -356  0
-434 355  0
-434 356  0
435 356 355  0
-435 -356  0
-435 -355  0
436 -357 -358  0
-436 357  0
-436 358  0
437 -360 -361  0
-437 360  0
-437 361  0
438 361 360  0
-438 -361  0
-438 -360  0
-439 362 363  0
439 -362  0
439 -363  0
-440 -362 -363  0
440 362  0
440 363  0
-441 364 365  0
441 -364  0
441 -365  0
-442 -365 -364  0
442 365  0
442 364  0
-443 366 367  0
443 -366  0
443 -367  0
-444 -367 -366  0
444 367  0
444 366  0
-445 368 369  0
445 -368  0
445 -369  0
-446 -368 -369  0
446 368  0
446 369  0
447 -289 -279  0
-447 289  0
-447 279  0
-448 -6 274  0
448 6  0
448 -274  0
-449 6 274  0
449 -6  0
449 -274  0
450 -370 -90  0
-450 370  0
-450 90  0
451 -91 -371  0
-451 91  0
-451 371  0
-452 -17 372  0
452 17  0
452 -372  0
-453 17 373  0
453 -17  0
453 -373  0
-454 -3 374  0
454 3  0
454 -374  0
-455 3 375  0
455 -3  0
455 -375  0
-456 9 376  0
456 -9  0
456 -376  0
-457 -9 376  0
457 9  0
457 -376  0
-458 -6 376  0
458 6  0
458 -376  0
-459 6 376  0
459 -6  0
459 -376  0
460 6 -377  0
-460 -6  0
-460 377  0
461 -6 -378  0
-461 6  0
-461 378  0
462 -379 -284  0
-462 379  0
-462 284  0
-463 380 288  0
463 -380  0
463 -288  0
464 -116 -381  0
-464 116  0
-464 381  0
-465 119 382  0
465 -119  0
465 -382  0
-466 -119 383  0
466 119  0
466 -383  0
-467 -13 384  0
467 13  0
467 -384  0
-468 13 385  0
468 -13  0
468 -385  0
-469 4 386  0
469 -4  0
469 -386  0
-470 -4 386  0
470 4  0
470 -386  0
471 8 -387  0
-471 -8  0
-471 387  0
472 -8 -388  0
-472 8  0
-472 388  0
473 -389 -390  0
-473 389  0
-473 390  0
474 -391 -392  0
-474 391  0
-474 392  0
475 -393 -394  0
-475 393  0
-475 394  0
-476 306 395  0
476 -306  0
476 -395  0
-477 -306 -395  0
477 306  0
477 395  0
478 -396 -311  0
-478 396  0
-478 311  0
479 396 311  0
-479 -396  0
-479 -311  0
-480 397 398  0
480 -397  0
480 -398  0
-481 399 400  0
481 -399  0
481 -400  0
-482 401 402  0
482 -401  0
482 -402  0
-483 403 404  0
483 -403  0
483 -404  0
-484 405 406  0
484 -405  0
484 -406  0
-485 407 408  0
485 -407  0
485 -408  0
-486 409 410  0
486 -409  0
486 -410  0
-487 326 411  0
487 -326  0
487 -411  0
-488 -326 -411  0
488 326  0
488 411  0
489 -412 -413  0
-489 412  0
-489 413  0
490 -414 -415  0
-490 414  0
-490 415  0
491 -416 -417  0
-491 416  0
-491 417  0
-492 335 418  0
492 -335  0
492 -418  0
-493 -335 -418  0
493 335  0
493 418  0
494 -419 -420  0
-494 419  0
-494 420  0
495 -421 -422  0
-495 421  0
-495 422  0
496 -423 -424  0
-496 423  0
-496 424  0
497 -425 -426  0
-497 425  0
-497 426  0
-498 346 427  0
498 -346  0
498 -427  0
-499 -346 -427  0
499 346  0
499 427  0
500 -428 -429  0
-500 428  0
-500 429  0
501 -430 -431  0
-501 430  0
-501 431  0
-502 432 433  0
502 -432  0
502 -433  0
-503 434 435  0
503 -434  0
503 -435  0
504 -436 -359  0
-504 436  0
-504 359  0
505 436 359  0
-505 -436  0
-505 -359  0
-506 437 438  0
506 -437  0
506 -438  0
507 -439 -440  0
-507 439  0
-507 440  0
508 -441 -442  0
-508 441  0
-508 442  0
509 -443 -444  0
-509 443  0
-509 444  0
510 -445 -446  0
-510 445  0
-510 446  0
-511 6 447  0
511 -6  0
511 -447  0
-512 9 447  0
512 -9  0
512 -447  0
-513 3 448  0
513 -3  0
513 -448  0
-514 -3 449  0
514 3  0
514 -449  0
-515 -9 447  0
515 9  0
515 -447  0
-516 -6 447  0
516 6  0
516 -447  0
-517 -2 450  0
517 2  0
517 -450  0
-518 2 450  0
518 -2  0
518 -450  0
519 3 -451  0
-519 -3  0
-519 451  0
520 -3 -451  0
-520 3  0
-520 451  0
521 -452 -453  0
-521 452  0
-521 453  0
522 -454 -455  0
-522 454  0
-522 455  0
-523 460 461  0
523 -460  0
523 -461  0
524 6 -464  0
-524 -6  0
-524 464  0
525 -6 -464  0
-525 6  0
-525 464  0
526 -465 -466  0
-526 465  0
-526 466  0
527 -467 -468  0
-527 467  0
-527 468  0
528 7 -469  0
-528 -7  0
-528 469  0
529 -7 -470  0
-529 7  0
-529 470  0
-530 471 472  0
530 -471  0
530 -472  0
-531 473 474  0
531 -473  0
531 -474  0
532 -476 -477  0
-532 476  0
-532 477  0
-533 478 479  0
533 -478  0
533 -479  0
534 -481 -482  0
-534 481  0
-534 482  0
-535 483 484  0
535 -483  0
535 -484  0
536 -485 -486  0
-536 485  0
-536 486  0
537 -487 -488  0
-537 487  0
-537 488  0
-538 490 491  0
538 -490  0
538 -491  0
539 -492 -493  0
-539 492  0
-539 493  0
540 -495 -496  0
-540 495  0
-540 496  0
541 -498 -499  0
-541 498  0
-541 499  0
-542 500 501  0
542 -500  0
542 -501  0
-543 502 503  0
543 -502  0
543 -503  0
-544 504 505  0
544 -504  0
544 -505  0
545 -507 -508  0
-545 507  0
-545 508  0
546 -509 -510  0
-546 509  0
-546 510  0
547 -513 -514  0
-547 513  0
-547 514  0
-548 4 517  0
548 -4  0
548 -517  0
-549 -4 518  0
549 4  0
549 -518  0
-550 2 519  0
550 -2  0
550 -519  0
-551 -2 520  0
551 2  0
551 -520  0
-552 -9 522  0
552 9  0
552 -522  0
-553 9 522  0
553 -9  0
553 -522  0
-554 523 462  0
554 -523  0
554 -462  0
-555 -523 -462  0
555 523  0
555 462  0
-556 463 523  0
556 -463  0
556 -523  0
-557 -523 -463  0
557 523  0
557 463  0
-558 16 524  0
558 -16  0
558 -524  0
-559 -16 525  0
559 16  0
559 -525  0
-560 528 529  0
560 -528  0
560 -529  0
561 -475 -532  0
-561 475  0
-561 532  0
-562 533 480  0
562 -533  0
562 -480  0
-563 535 536  0
563 -535  0
563 -536  0
-564 -535 -536  0
564 535  0
564 536  0
565 -537 -489  0
-565 537  0
-565 489  0
566 -539 -494  0
-566 539  0
-566 494  0
-567 497 541  0
567 -497  0
567 -541  0
-568 544 506  0
568 -544  0
568 -506  0
-569 545 546  0
569 -545  0
569 -546  0
-570 -545 -546  0
570 545  0
570 546  0
-571 -9 547  0
571 9  0
571 -547  0
-572 9 547  0
572 -9  0
572 -547  0
573 -548 -549  0
-573 548  0
-573 549  0
574 -550 -551  0
-574 550  0
-574 551  0
575 -552 -456  0
-575 552  0
-575 456  0
576 -457 -553  0
-576 457  0
-576 553  0
577 -554 -555  0
-577 554  0
-577 555  0
578 -556 -557  0
-578 556  0
-578 557  0
579 -558 -559  0
-579 558  0
-579 559  0
-580 531 561  0
580 -531  0
580 -561  0
-581 -561 -531  0
581 561  0
581 531  0
-582 562 534  0
582 -562  0
582 -534  0
-583 -562 -534  0
583 562  0
583 534  0
584 -563 -564  0
-584 563  0
-584 564  0
-585 565 538  0
585 -565  0
585 -538  0
-586 -538 -565  0
586 538  0
586 565  0
-587 566 540  0
587 -566  0
587 -540  0
-588 -540 -566  0
588 540  0
588 566  0
-589 567 542  0
589 -567  0
589 -542  0
-590 -567 -542  0
590 567  0
590 542  0
-591 543 568  0
591 -543  0
591 -568  0
-592 -568 -543  0
592 568  0
592 543  0
593 -569 -570  0
-593 569  0
-593 570  0
594 -512 -571  0
-594 512  0
-594 571  0
595 -572 -515  0
-595 572  0
-595 515  0
-596 574 521  0
596 -574  0
596 -521  0
-597 -574 -521  0
597 574  0
597 521  0
-598 100 575  0
598 -100  0
598 -575  0
-599 -100 576  0
599 100  0
599 -576  0
600 1 -578  0
-600 -1  0
-600 578  0
601 -1 -578  0
-601 1  0
-601 578  0
-602 578 -280  0
602 -578  0
602 280  0
603 -580 -581  0
-603 580  0
-603 581  0
604 -582 -583  0
-604 582  0
-604 583  0
605 -585 -586  0
-605 585  0
-605 586  0
606 -587 -588  0
-606 587  0
-606 588  0
607 -589 -590  0
-607 589  0
-607 590  0
608 -591 -592  0
-608 591  0
-608 592  0
-609 100 594  0
609 -100  0
609 -594  0
-610 -100 595  0
610 100  0
610 -595  0
-611 -1 577  0
611 1  0
611 -577  0
-612 1 577  0
612 -1  0
612 -577  0
-613 577 -280  0
613 -577  0
613 280  0
614 -596 -597  0
-614 596  0
-614 597  0
615 -598 -599  0
-615 598  0
-615 599  0
-616 -8 600  0
616 8  0
616 -600  0
-617 8 601  0
617 -8  0
617 -601  0
-618 -8 601  0
618 8  0
618 -601  0
-619 8 600  0
619 -8  0
619 -600  0
-620 603 604  0
620 -603  0
620 -604  0
621 -584 -605  0
-621 584  0
-621 605  0
-622 606 607  0
622 -606  0
622 -607  0
623 -608 -593  0
-623 608  0
-623 593  0
624 -609 -610  0
-624 609  0
-624 610  0
-625 8 611  0
625 -8  0
625 -611  0
-626 -8 612  0
626 8  0
626 -612  0
-627 8 612  0
627 -8  0
627 -612  0
-628 -8 611  0
628 8  0
628 -611  0
629 3 -614  0
-629 -3  0
-629 614  0
630 -3 -614  0
-630 3  0
-630 614  0
-631 277 614  0
631 -277  0
631 -614  0
-632 6 615  0
632 -6  0
632 -615  0
-633 -6 615  0
633 6  0
633 -615  0
634 -616 -617  0
-634 616  0
-634 617  0
635 -618 -619  0
-635 618  0
-635 619  0
636 -620 -621  0
-636 620  0
-636 621  0
637 621 620  0
-637 -621  0
-637 -620  0
638 -622 -623  0
-638 622  0
-638 623  0
639 623 622  0
-639 -623  0
-639 -622  0
-640 -6 624  0
640 6  0
640 -624  0
-641 6 624  0
641 -6  0
641 -624  0
642 -625 -626  0
-642 625  0
-642 626  0
643 -627 -628  0
-643 627  0
-643 628  0
-644 -13 629  0
644 13  0
644 -629  0
-645 13 630  0
645 -13  0
645 -630  0
-646 -13 630  0
646 13  0
646 -630  0
-647 13 629  0
647 -13  0
647 -629  0
648 -632 -458  0
-648 632  0
-648 458  0
649 -633 -459  0
-649 633  0
-649 459  0
650 -634 -289  0
-650 634  0
-650 289  0
-651 635 280  0
651 -635  0
651 -280  0
-652 636 637  0
652 -636  0
652 -637  0
-653 638 639  0
653 -638  0
653 -639  0
654 -511 -640  0
-654 511  0
-654 640  0
655 -516 -641  0
-655 516  0
-655 641  0
-656 642 280  0
656 -642  0
656 -280  0
-657 280 643  0
657 -280  0
657 -643  0
658 -644 -645  0
-658 644  0
-658 645  0
659 -646 -647  0
-659 646  0
-659 647  0
-660 16 648  0
660 -16  0
660 -648  0
-661 -16 649  0
661 16  0
661 -649  0
-662 650 579  0
662 -650  0
662 -579  0
663 -651 -602  0
-663 651  0
-663 602  0
-664 652 653  0
664 -652  0
664 -653  0
-665 -16 654  0
665 16  0
665 -654  0
-666 16 655  0
666 -16  0
666 -655  0
-667 656 579  0
667 -656  0
667 -579  0
668 -613 -657  0
-668 613  0
-668 657  0
669 5 -658  0
-669 -5  0
-669 658  0
670 -5 -658  0
-670 5  0
-670 658  0
-671 659 -277  0
671 -659  0
671 277  0
672 -660 -661  0
-672 660  0
-672 661  0
-673 -579 663  0
673 579  0
673 -663  0
674 -665 -666  0
-674 665  0
-674 666  0
-675 -579 668  0
675 579  0
675 -668  0
-676 14 669  0
676 -14  0
676 -669  0
-677 -14 670  0
677 14  0
677 -670  0
678 -631 -671  0
-678 631  0
-678 671  0
-679 672 577  0
679 -672  0
679 -577  0
680 -662 -673  0
-680 662  0
-680 673  0
681 -674 -578  0
-681 674  0
-681 578  0
682 -667 -675  0
-682 667  0
-682 675  0
683 -676 -677  0
-683 676  0
-683 677  0
-684 -573 678  0
684 573  0
684 -678  0
-685 278 679  0
685 -278  0
685 -679  0
-686 -4 679  0
686 4  0
686 -679  0
-687 285 680  0
687 -285  0
687 -680  0
-688 -5 679  0
688 5  0
688 -679  0
-689 5 680  0
689 -5  0
689 -680  0
-690 5 679  0
690 -5  0
690 -679  0
-691 -5 680  0
691 5  0
691 -680  0
-692 285 679  0
692 -285  0
692 -679  0
-693 4 679  0
693 -4  0
693 -679  0
-694 285 681  0
694 -285  0
694 -681  0
-695 -5 681  0
695 5  0
695 -681  0
-696 5 682  0
696 -5  0
696 -682  0
-697 -5 682  0
697 5  0
697 -682  0
-698 5 681  0
698 -5  0
698 -681  0
-699 285 682  0
699 -285  0
699 -682  0
-700 -4 681  0
700 4  0
700 -681  0
-701 4 681  0
701 -4  0
701 -681  0
-702 681 278  0
702 -681  0
702 -278  0
-703 573 683  0
703 -573  0
703 -683  0
704 -688 -689  0
-704 688  0
-704 689  0
705 -690 -691  0
-705 690  0
-705 691  0
706 -695 -696  0
-706 695  0
-706 696  0
707 -697 -698  0
-707 697  0
-707 698  0
708 -703 -684  0
-708 703  0
-708 684  0
-709 14 704  0
709 -14  0
709 -704  0
-710 -14 705  0
710 14  0
710 -705  0
-711 14 705  0
711 -14  0
711 -705  0
-712 -14 704  0
712 14  0
712 -704  0
-713 -14 706  0
713 14  0
713 -706  0
-714 14 707  0
714 -14  0
714 -707  0
-715 -14 707  0
715 14  0
715 -707  0
-716 14 706  0
716 -14  0
716 -706  0
717 -709 -710  0
-717 709  0
-717 710  0
718 -711 -712  0
-718 711  0
-718 712  0
719 -713 -714  0
-719 713  0
-719 714  0
720 -715 -716  0
-720 715  0
-720 716  0
-721 -285 717  0
721 285  0
721 -717  0
-722 -285 718  0
722 285  0
722 -718  0
-723 -285 719  0
723 285  0
723 -719  0
-724 -285 720  0
724 285  0
724 -720  0
725 -687 -721  0
-725 687  0
-725 721  0
726 -692 -722  0
-726 692  0
-726 722  0
727 -694 -723  0
-727 694  0
-727 723  0
728 -699 -724  0
-728 699  0
-728 724  0
-729 725 526  0
729 -725  0
729 -526  0
-730 726 -526  0
730 -726  0
730 526  0
-731 727 -526  0
731 -727  0
731 526  0
-732 728 526  0
732 -728  0
732 -526  0
733 -729 -730  0
-733 729  0
-733 730  0
734 -731 -732  0
-734 731  0
-734 732  0
-735 4 733  0
735 -4  0
735 -733  0
-736 -4 733  0
736 4  0
736 -733  0
-737 278 733  0
737 -278  0
737 -733  0
-738 734 278  0
738 -734  0
738 -278  0
-739 4 734  0
739 -4  0
739 -734  0
-740 -4 734  0
740 4  0
740 -734  0
741 -686 -735  0
-741 686  0
-741 735  0
742 -693 -736  0
-742 693  0
-742 736  0
743 -739 -700  0
-743 739  0
-743 700  0
744 -740 -701  0
-744 740  0
-744 701  0
-745 15 741  0
745 -15  0
745 -741  0
-746 -15 742  0
746 15  0
746 -742  0
-747 -15 741  0
747 15  0
747 -741  0
-748 15 742  0
748 -15  0
748 -742  0
-749 -15 743  0
749 15  0
749 -743  0
-750 15 744  0
750 -15  0
750 -744  0
-751 15 743  0
751 -15  0
751 -743  0
-752 -15 744  0
752 15  0
752 -744  0
753 -745 -746  0
-753 745  0
-753 746  0
754 -747 -748  0
-754 747  0
-754 748  0
755 -749 -750  0
-755 749  0
-755 750  0
756 -751 -752  0
-756 751  0
-756 752  0
-757 753 -278  0
757 -753  0
757 278  0
-758 754 -278  0
758 -754  0
758 278  0
-759 755 -278  0
759 -755  0
759 278  0
-760 -278 756  0
760 278  0
760 -756  0
761 -685 -757  0
-761 685  0
-761 757  0
762 -758 -737  0
-762 758  0
-762 737  0
763 -738 -759  0
-763 738  0
-763 759  0
764 -760 -702  0
-764 760  0
-764 702  0
-765 761 527  0
765 -761  0
765 -527  0
-766 762 -527  0
766 -762  0
766 527  0
-767 763 -527  0
767 -763  0
767 527  0
-768 764 527  0
768 -764  0
768 -527  0
769 -765 -766  0
-769 765  0
-769 766  0
770 -767 -768  0
-770 767  0
-770 768  0
771 -14 -769  0
-771 14  0
-771 769  0
772 14 -769  0
-772 -14  0
-772 769  0
-773 769 -296  0
773 -769  0
773 296  0
-774 -5 769  0
774 5  0
774 -769  0
-775 5 769  0
775 -5  0
775 -769  0
-776 769 297  0
776 -769  0
776 -297  0
-777 -5 770  0
777 5  0
777 -770  0
-778 14 770  0
778 -14  0
778 -770  0
-779 -14 770  0
779 14  0
779 -770  0
-780 770 -296  0
780 -770  0
780 296  0
-781 5 770  0
781 -5  0
781 -770  0
-782 770 297  0
782 -770  0
782 -297  0
-783 -15 771  0
783 15  0
783 -771  0
-784 15 772  0
784 -15  0
784 -772  0
-785 15 771  0
785 -15  0
785 -771  0
-786 -15 772  0
786 15  0
786 -772  0
-787 -15 778  0
787 15  0
787 -778  0
-788 15 779  0
788 -15  0
788 -779  0
-789 -15 779  0
789 15  0
789 -779  0
-790 15 778  0
790 -15  0
790 -778  0
791 -783 -784  0
-791 783  0
-791 784  0
792 -785 -786  0
-792 785  0
-792 786  0
793 -787 -788  0
-793 787  0
-793 788  0
794 -789 -790  0
-794 789  0
-794 790  0
795 -791 -293  0
-795 791  0
-795 293  0
-796 792 296  0
796 -792  0
796 -296  0
-797 296 793  0
797 -296  0
797 -793  0
-798 296 794  0
798 -296  0
798 -794  0
-799 795 560  0
799 -795  0
799 -560  0
800 -796 -773  0
-800 796  0
-800 773  0
-801 -560 795  0
801 560  0
801 -795  0
802 -797 -780  0
-802 797  0
-802 780  0
-803 798 560  0
803 -798  0
803 -560  0
-804 798 -560  0
804 -798  0
804 560  0
-805 -560 800  0
805 560  0
805 -800  0
-806 800 560  0
806 -800  0
806 -560  0
-807 -560 802  0
807 560  0
807 -802  0
-808 560 802  0
808 -560  0
808 -802  0
809 -799 -805  0
-809 799  0
-809 805  0
810 -806 -801  0
-810 806  0
-810 801  0
811 -807 -803  0
-811 807  0
-811 803  0
812 -808 -804  0
-812 808  0
-812 804  0
-813 809 297  0
813 -809  0
813 -297  0
-814 5 809  0
814 -5  0
814 -809  0
-815 -5 809  0
815 5  0
815 -809  0
816 5 -810  0
-816 -5  0
-816 810  0
817 -5 -810  0
-817 5  0
-817 810  0
-818 297 810  0
818 -297  0
818 -810  0
-819 5 811  0
819 -5  0
819 -811  0
-820 -5 811  0
820 5  0
820 -811  0
-821 297 811  0
821 -297  0
821 -811  0
-822 -5 812  0
822 5  0
822 -812  0
-823 5 812  0
823 -5  0
823 -812  0
-824 812 297  0
824 -812  0
824 -297  0
825 -774 -814  0
-825 774  0
-825 814  0
826 -775 -815  0
-826 775  0
-826 815  0
-827 4 816  0
827 -4  0
827 -816  0
-828 -4 817  0
828 4  0
828 -817  0
-829 4 817  0
829 -4  0
829 -817  0
-830 -4 816  0
830 4  0
830 -816  0
831 -777 -819  0
-831 777  0
-831 819  0
832 -781 -820  0
-832 781  0
-832 820  0
-833 -4 822  0
833 4  0
833 -822  0
-834 4 823  0
834 -4  0
834 -823  0
-835 -4 823  0
835 4  0
835 -823  0
-836 4 822  0
836 -4  0
836 -822  0
-837 4 825  0
837 -4  0
837 -825  0
-838 -4 826  0
838 4  0
838 -826  0
-839 -4 825  0
839 4  0
839 -825  0
-840 4 826  0
840 -4  0
840 -826  0
841 -827 -828  0
-841 827  0
-841 828  0
842 -829 -830  0
-842 829  0
-842 830  0
-843 -4 831  0
843 4  0
843 -831  0
-844 4 832  0
844 -4  0
844 -832  0
-845 4 831  0
845 -4  0
845 -831  0
-846 -4 832  0
846 4  0
846 -832  0
847 -833 -834  0
-847 833  0
-847 834  0
848 -835 -836  0
-848 835  0
-848 836  0
849 -837 -838  0
-849 837  0
-849 838  0
850 -839 -840  0
-850 839  0
-850 840  0
-851 -297 841  0
851 297  0
851 -841  0
852 -842 -299  0
-852 842  0
-852 299  0
853 -843 -844  0
-853 843  0
-853 844  0
854 -845 -846  0
-854 845  0
-854 846  0
-855 -297 847  0
855 297  0
855 -847  0
-856 -297 848  0
856 297  0
856 -848  0
-857 -297 849  0
857 297  0
857 -849  0
-858 -297 850  0
858 297  0
858 -850  0
859 -851 -818  0
-859 851  0
-859 818  0
-860 852 -530  0
860 -852  0
860 530  0
-861 -297 853  0
861 297  0
861 -853  0
-862 -297 854  0
862 297  0
862 -854  0
863 -855 -824  0
-863 855  0
-863 824  0
-864 856 -530  0
864 -856  0
864 530  0
865 -813 -857  0
-865 813  0
-865 857  0
866 -776 -858  0
-866 776  0
-866 858  0
-867 530 859  0
867 -530  0
867 -859  0
868 -861 -782  0
-868 861  0
-868 782  0
869 -821 -862  0
-869 821  0
-869 862  0
-870 863 530  0
870 -863  0
870 -530  0
-871 865 530  0
871 -865  0
871 -530  0
-872 866 -530  0
872 -866  0
872 530  0
873 -867 -860  0
-873 867  0
-873 860  0
-874 868 -530  0
874 -868  0
874 530  0
-875 869 530  0
875 -869  0
875 -530  0
876 -870 -864  0
-876 870  0
-876 864  0
877 -871 -872  0
-877 871  0
-877 872  0
-878 873 -708  0
878 -873  0
878 708  0
879 -874 -875  0
-879 874  0
-879 875  0
-880 -708 876  0
880 708  0
880 -876  0
-881 708 877  0
881 -708  0
881 -877  0
-882 879 708  0
882 -879  0
882 -708  0
883 -881 -878  0
-883 881  0
-883 878  0
884 -882 -880  0
-884 882  0
-884 880  0
-885 883 664  0
885 -883  0
885 -664  0
-886 -664 884  0
886 664  0
886 -884  0
887 -885 -886  0
-887 885  0
-887 886  0
